NAME : inst_4
COMMENT : Custom instance
TYPE : TSP
DIMENSION: 13
EDGE_WEIGHT_TYPE : EUC_2D
NODE_COORD_SECTION
1 54 21
2 61 0
3 3 54
4 36 61
5 22 33
6 27 34
7 73 44
8 91 18
9 5 16
10 63 1
11 0 17
12 71 27
13 91 45
EOF
